Cars = 1..100;
Options = 1..5;
Classes = 1..24;
sequenceMinCapacity = [0, 0, 0, 0, 0];
sequenceMaxCapacity = [1, 2, 1, 2, 1];
sequenceSize = [2, 3, 3, 5, 5];
numOrdered = [2, 13, 10, 14, 5, 2, 2, 8, 5, 3, 9, 6, 2, 2, 1, 2, 2, 1, 1, 6, 1, 1, 1, 1];
classHasOption = [| true,  true, false,  true, false
                  |false,  true, false, false, false
                  |false,  true, false,  true, false
                  | true,  true, false, false, false
                  |false, false, false,  true, false
                  |false,  true, false,  true,  true
                  |false,  true,  true, false, false
                  | true, false, false,  true, false
                  |false, false,  true,  true, false
                  | true,  true,  true, false, false
                  | true, false, false, false, false
                  | true,  true, false, false,  true
                  | true,  true,  true,  true, false
                  |false, false, false, false,  true
                  | true,  true,  true, false,  true
                  |false,  true,  true,  true, false
                  | true, false,  true, false, false
                  | true, false, false, false,  true
                  | true, false,  true,  true, false
                  |false, false,  true, false, false
                  | true,  true,  true,  true,  true
                  |false, false,  true,  true,  true
                  |false,  true,  true, false,  true
                  |false, false,  true, false,  true|];
optionOrdering = [1, 3, 5, 4, 2];
